************************************************************************
file with basedata            : mm27_.bas
initial value random generator: 127870085
************************************************************************
projects                      :  1
jobs (incl. supersource/sink ):  12
horizon                       :  69
RESOURCES
  - renewable                 :  2   R
  - nonrenewable              :  2   N
  - doubly constrained        :  0   D
************************************************************************
PROJECT INFORMATION:
pronr.  #jobs rel.date duedate tardcost  MPM-Time
    1     10      0       14        7       14
************************************************************************
PRECEDENCE RELATIONS:
jobnr.    #modes  #successors   successors
   0        1          3           1   2   3
   1        3          2           8   9
   2        3          3           4   6   8
   3        3          2           5   7
   4        3          1          10
   5        3          1          10
   6        3          2           7  10
   7        3          1           9
   8        3          1          11
   9        3          1          11
  10        3          1          11
  11        1          0        
************************************************************************
REQUESTS/DURATIONS:
jobnr. mode duration  R 1  R 2  R 3  R 4  E(W 1)
------------------------------------------------------------------------
  0      1     0       0    0    0    0     0
  1      1     1       8    0    0    3    11
  2      1     5       0    6    0    4    50
  3      1     8       0    9    0    2    88
  4      1     1       0    1    0    3     5
  5      1     3       0    5    8    0    39
  6      1     2       0    9    3    0    24
  7      1     2       5    0    6    0    22
  8      1     2       9    0    0    7    32
  9      1     4       0    8    7    0    60
 10      1     1       0    6    3    0     9
 11      1     0       0    0    0    0     0
************************************************************************
RESOURCEAVAILABILITIES:
  R 1
   124
************************************************************************
RESOURCE LIMITS:
jobnr.  l(R 1)  u(R 1)
------------------------------------------------------------------------
  0        0       0
  1        6      11
  2        5      10
  3        6      11
  4        3       5
  5        7      13
  6        7      12
  7        6      11
  8        9      16
  9        8      15
 10        5       9
 11        0       0
************************************************************************
SCENARIOS:
------------------------------------------------------------------------
RESOURCE k = 1
s = 1: (0, 13, 40, 141, 4, 28, 28, 21, 33, 61, 13, 0)
s = 2: (0, 11, 33, 74, 3, 27, 22, 17, 39, 78, 12, 0)
s = 3: (0, 11, 74, 118, 8, 55, 34, 24, 33, 77, 11, 0)
s = 4: (0, 19, 43, 98, 4, 47, 18, 32, 45, 65, 7, 0)
s = 5: (0, 18, 64, 47, 5, 21, 29, 30, 48, 46, 6, 0)
s = 6: (0, 9, 53, 64, 4, 21, 23, 20, 32, 56, 7, 0)
s = 7: (0, 7, 30, 76, 4, 51, 21, 26, 41, 47, 7, 0)
s = 8: (0, 16, 50, 78, 8, 31, 38, 17, 40, 88, 10, 0)
s = 9: (0, 13, 37, 98, 4, 31, 33, 15, 22, 46, 6, 0)
s = 10: (0, 18, 71, 74, 4, 37, 18, 14, 28, 42, 13, 0)
s = 11: (0, 13, 70, 92, 4, 32, 22, 16, 43, 65, 11, 0)
s = 12: (0, 11, 27, 127, 6, 39, 33, 34, 29, 43, 16, 0)
s = 13: (0, 12, 33, 80, 7, 32, 17, 26, 29, 37, 8, 0)
s = 14: (0, 8, 65, 107, 6, 60, 20, 24, 29, 58, 7, 0)
s = 15: (0, 10, 86, 107, 4, 34, 29, 13, 45, 111, 9, 0)
s = 16: (0, 9, 54, 64, 6, 25, 26, 18, 35, 81, 11, 0)
s = 17: (0, 14, 79, 85, 8, 48, 28, 17, 42, 75, 12, 0)
s = 18: (0, 9, 62, 77, 5, 48, 15, 31, 34, 59, 11, 0)
s = 19: (0, 7, 47, 101, 5, 46, 23, 20, 32, 37, 7, 0)
s = 20: (0, 10, 51, 131, 9, 32, 17, 19, 36, 55, 8, 0)
s = 21: (0, 12, 61, 68, 5, 31, 26, 12, 36, 88, 13, 0)
s = 22: (0, 17, 28, 74, 6, 25, 19, 18, 40, 77, 9, 0)
s = 23: (0, 18, 74, 75, 4, 29, 35, 16, 25, 43, 12, 0)
s = 24: (0, 12, 31, 93, 10, 30, 21, 26, 45, 83, 9, 0)
s = 25: (0, 12, 32, 149, 6, 33, 35, 17, 26, 82, 13, 0)
s = 26: (0, 9, 70, 155, 9, 49, 35, 33, 24, 46, 11, 0)
s = 27: (0, 14, 38, 109, 4, 37, 15, 32, 22, 81, 9, 0)
s = 28: (0, 13, 55, 114, 6, 58, 23, 25, 20, 35, 7, 0)
s = 29: (0, 6, 66, 93, 7, 36, 28, 20, 32, 50, 11, 0)
s = 30: (0, 11, 51, 51, 8, 35, 22, 29, 27, 55, 13, 0)
s = 31: (0, 13, 55, 54, 4, 32, 24, 29, 44, 47, 7, 0)
s = 32: (0, 7, 61, 124, 6, 46, 27, 28, 38, 62, 7, 0)
s = 33: (0, 9, 51, 121, 4, 55, 29, 22, 35, 54, 9, 0)
s = 34: (0, 20, 78, 79, 7, 38, 32, 17, 57, 40, 10, 0)
s = 35: (0, 15, 36, 81, 5, 26, 23, 13, 38, 60, 16, 0)
s = 36: (0, 8, 61, 83, 4, 43, 26, 32, 33, 47, 9, 0)
s = 37: (0, 8, 89, 92, 5, 37, 28, 25, 37, 90, 7, 0)
s = 38: (0, 16, 57, 74, 5, 69, 26, 30, 32, 56, 8, 0)
s = 39: (0, 7, 31, 97, 5, 44, 24, 38, 19, 56, 8, 0)
s = 40: (0, 18, 67, 85, 8, 35, 17, 20, 33, 67, 9, 0)
s = 41: (0, 12, 47, 115, 4, 33, 37, 26, 34, 62, 9, 0)
s = 42: (0, 10, 29, 58, 7, 34, 20, 32, 26, 56, 5, 0)
s = 43: (0, 10, 48, 125, 6, 32, 21, 35, 23, 76, 7, 0)
s = 44: (0, 17, 58, 104, 4, 36, 27, 28, 44, 69, 11, 0)
s = 45: (0, 8, 40, 84, 6, 23, 18, 30, 33, 45, 12, 0)
s = 46: (0, 12, 30, 126, 6, 26, 19, 28, 43, 54, 8, 0)
s = 47: (0, 9, 96, 63, 7, 32, 25, 29, 35, 64, 7, 0)
s = 48: (0, 11, 28, 100, 5, 60, 18, 18, 28, 65, 11, 0)
s = 49: (0, 10, 63, 89, 5, 31, 18, 20, 34, 44, 13, 0)
s = 50: (0, 12, 75, 78, 4, 38, 17, 20, 28, 67, 8, 0)
s = 51: (0, 10, 68, 121, 4, 41, 35, 22, 29, 54, 6, 0)
s = 52: (0, 8, 65, 91, 7, 42, 27, 20, 18, 50, 9, 0)
s = 53: (0, 13, 52, 90, 4, 25, 30, 26, 31, 81, 12, 0)
s = 54: (0, 9, 43, 70, 4, 57, 20, 23, 43, 53, 14, 0)
s = 55: (0, 6, 30, 48, 7, 57, 23, 17, 20, 55, 14, 0)
s = 56: (0, 14, 63, 65, 6, 22, 32, 13, 31, 61, 12, 0)
s = 57: (0, 10, 51, 76, 6, 55, 20, 22, 40, 43, 6, 0)
s = 58: (0, 10, 42, 93, 7, 26, 16, 15, 60, 74, 11, 0)
s = 59: (0, 14, 77, 83, 5, 38, 18, 17, 27, 58, 11, 0)
s = 60: (0, 12, 57, 89, 8, 25, 26, 29, 29, 61, 6, 0)
s = 61: (0, 15, 45, 65, 7, 33, 22, 17, 36, 57, 11, 0)
s = 62: (0, 9, 47, 93, 4, 31, 23, 28, 47, 56, 12, 0)
s = 63: (0, 11, 54, 72, 7, 32, 23, 27, 28, 61, 10, 0)
s = 64: (0, 7, 57, 79, 4, 28, 35, 22, 37, 64, 6, 0)
s = 65: (0, 10, 51, 65, 4, 27, 25, 14, 42, 44, 12, 0)
s = 66: (0, 10, 45, 77, 5, 31, 22, 18, 23, 56, 5, 0)
s = 67: (0, 10, 32, 120, 4, 25, 15, 24, 33, 44, 9, 0)
s = 68: (0, 11, 60, 108, 7, 56, 24, 14, 28, 53, 10, 0)
s = 69: (0, 9, 35, 82, 7, 39, 25, 25, 45, 70, 11, 0)
s = 70: (0, 11, 46, 111, 5, 28, 16, 21, 27, 52, 5, 0)
s = 71: (0, 11, 56, 126, 7, 32, 21, 18, 42, 49, 12, 0)
s = 72: (0, 15, 43, 80, 3, 68, 20, 29, 21, 53, 12, 0)
s = 73: (0, 9, 57, 61, 9, 47, 22, 20, 40, 66, 5, 0)
s = 74: (0, 9, 56, 57, 3, 34, 28, 15, 32, 51, 16, 0)
s = 75: (0, 13, 43, 97, 4, 40, 32, 19, 40, 58, 9, 0)
s = 76: (0, 10, 78, 77, 4, 60, 25, 25, 32, 63, 7, 0)
s = 77: (0, 11, 53, 90, 5, 68, 23, 12, 34, 124, 7, 0)
s = 78: (0, 9, 49, 69, 4, 34, 16, 21, 35, 91, 6, 0)
s = 79: (0, 6, 62, 86, 4, 58, 25, 22, 25, 80, 8, 0)
s = 80: (0, 9, 49, 68, 5, 33, 34, 31, 19, 45, 13, 0)
s = 81: (0, 10, 37, 57, 3, 39, 19, 22, 52, 59, 12, 0)
s = 82: (0, 16, 76, 78, 5, 53, 15, 15, 35, 43, 7, 0)
s = 83: (0, 10, 35, 124, 4, 35, 15, 16, 31, 38, 7, 0)
s = 84: (0, 8, 58, 68, 7, 33, 25, 15, 34, 41, 13, 0)
s = 85: (0, 12, 35, 169, 7, 33, 15, 19, 23, 60, 7, 0)
s = 86: (0, 9, 69, 115, 9, 31, 22, 21, 30, 41, 6, 0)
s = 87: (0, 17, 46, 117, 5, 45, 19, 26, 30, 45, 6, 0)
s = 88: (0, 17, 48, 105, 5, 43, 28, 15, 34, 44, 10, 0)
s = 89: (0, 8, 69, 72, 6, 44, 25, 31, 37, 85, 7, 0)
s = 90: (0, 12, 37, 62, 9, 30, 18, 24, 35, 71, 6, 0)
s = 91: (0, 11, 47, 102, 8, 33, 26, 34, 34, 59, 17, 0)
s = 92: (0, 11, 59, 94, 5, 50, 20, 27, 36, 60, 8, 0)
s = 93: (0, 12, 34, 101, 5, 40, 19, 25, 35, 57, 11, 0)
s = 94: (0, 8, 47, 52, 3, 31, 27, 16, 38, 71, 7, 0)
s = 95: (0, 12, 52, 102, 6, 57, 27, 13, 35, 67, 12, 0)
s = 96: (0, 18, 56, 143, 3, 33, 24, 25, 23, 56, 8, 0)
s = 97: (0, 10, 68, 73, 6, 23, 31, 39, 42, 54, 10, 0)
s = 98: (0, 12, 51, 109, 7, 50, 31, 14, 26, 45, 8, 0)
s = 99: (0, 13, 75, 62, 4, 30, 30, 25, 21, 56, 9, 0)
s = 100: (0, 16, 71, 70, 9, 29, 16, 33, 47, 51, 14, 0)
s = 101: (0, 9, 40, 102, 4, 43, 32, 32, 29, 107, 9, 0)
s = 102: (0, 16, 45, 78, 5, 29, 28, 17, 48, 41, 6, 0)
s = 103: (0, 9, 30, 77, 6, 47, 26, 22, 32, 58, 6, 0)
s = 104: (0, 10, 57, 54, 7, 37, 29, 24, 22, 86, 10, 0)
s = 105: (0, 9, 58, 58, 4, 36, 14, 14, 42, 96, 12, 0)
s = 106: (0, 9, 38, 127, 6, 28, 20, 17, 30, 58, 9, 0)
s = 107: (0, 8, 44, 79, 6, 29, 23, 16, 33, 101, 9, 0)
s = 108: (0, 12, 49, 64, 7, 51, 17, 22, 48, 40, 11, 0)
s = 109: (0, 10, 61, 125, 7, 32, 21, 19, 32, 70, 6, 0)
s = 110: (0, 9, 37, 95, 5, 28, 24, 25, 45, 44, 10, 0)
s = 111: (0, 13, 28, 112, 4, 28, 26, 14, 23, 87, 6, 0)
s = 112: (0, 11, 52, 79, 7, 38, 32, 19, 33, 52, 7, 0)
s = 113: (0, 10, 32, 82, 5, 58, 26, 20, 24, 65, 7, 0)
s = 114: (0, 9, 48, 72, 6, 35, 23, 17, 21, 46, 14, 0)
s = 115: (0, 10, 39, 69, 4, 28, 27, 19, 34, 80, 7, 0)
s = 116: (0, 11, 31, 121, 7, 36, 21, 20, 46, 42, 12, 0)
s = 117: (0, 10, 39, 137, 8, 38, 26, 34, 33, 72, 16, 0)
s = 118: (0, 14, 51, 76, 3, 44, 18, 14, 38, 53, 10, 0)
s = 119: (0, 9, 59, 109, 4, 37, 23, 23, 22, 72, 15, 0)
s = 120: (0, 7, 49, 93, 6, 54, 25, 45, 45, 97, 11, 0)
s = 121: (0, 9, 57, 88, 6, 41, 25, 30, 37, 43, 12, 0)
s = 122: (0, 11, 54, 72, 5, 31, 17, 12, 23, 66, 7, 0)
s = 123: (0, 12, 33, 119, 6, 63, 37, 15, 25, 68, 7, 0)
s = 124: (0, 8, 46, 75, 9, 53, 32, 19, 22, 73, 12, 0)
s = 125: (0, 13, 77, 85, 3, 23, 15, 31, 34, 70, 12, 0)
s = 126: (0, 9, 67, 69, 3, 47, 36, 28, 45, 54, 8, 0)
s = 127: (0, 14, 57, 80, 4, 43, 30, 13, 51, 63, 6, 0)
s = 128: (0, 8, 37, 69, 4, 48, 33, 23, 27, 52, 10, 0)
s = 129: (0, 12, 62, 101, 5, 30, 16, 27, 26, 46, 5, 0)
s = 130: (0, 8, 53, 119, 8, 63, 32, 26, 30, 79, 6, 0)
s = 131: (0, 10, 59, 107, 8, 36, 18, 18, 39, 45, 7, 0)
s = 132: (0, 16, 29, 86, 4, 36, 27, 24, 27, 66, 11, 0)
s = 133: (0, 20, 32, 87, 5, 40, 24, 18, 17, 50, 7, 0)
s = 134: (0, 14, 61, 64, 7, 35, 21, 22, 34, 67, 13, 0)
s = 135: (0, 12, 52, 80, 6, 30, 33, 14, 43, 80, 8, 0)
s = 136: (0, 11, 72, 120, 5, 32, 20, 24, 51, 80, 9, 0)
s = 137: (0, 9, 55, 62, 5, 28, 25, 24, 42, 47, 7, 0)
s = 138: (0, 7, 51, 59, 6, 51, 30, 33, 32, 39, 14, 0)
s = 139: (0, 8, 43, 68, 4, 37, 34, 31, 52, 43, 10, 0)
s = 140: (0, 8, 61, 68, 4, 30, 21, 17, 23, 34, 13, 0)
s = 141: (0, 16, 48, 159, 6, 43, 25, 20, 24, 79, 8, 0)
s = 142: (0, 7, 31, 53, 5, 36, 21, 14, 31, 87, 15, 0)
s = 143: (0, 14, 45, 89, 6, 64, 14, 25, 30, 52, 9, 0)
s = 144: (0, 12, 43, 91, 4, 45, 25, 26, 31, 50, 10, 0)
s = 145: (0, 14, 55, 72, 5, 26, 15, 17, 46, 89, 8, 0)
s = 146: (0, 9, 61, 117, 4, 48, 27, 20, 20, 75, 10, 0)
s = 147: (0, 10, 47, 75, 6, 61, 14, 13, 48, 66, 9, 0)
s = 148: (0, 8, 49, 62, 5, 42, 20, 22, 38, 54, 10, 0)
s = 149: (0, 17, 39, 128, 7, 33, 21, 23, 21, 38, 8, 0)
s = 150: (0, 17, 30, 89, 5, 55, 34, 22, 33, 70, 5, 0)
s = 151: (0, 14, 57, 127, 5, 30, 37, 18, 30, 42, 8, 0)
s = 152: (0, 15, 38, 109, 6, 40, 24, 19, 20, 61, 9, 0)
s = 153: (0, 15, 80, 109, 4, 32, 18, 19, 34, 32, 8, 0)
s = 154: (0, 11, 55, 99, 5, 53, 24, 23, 40, 54, 11, 0)
s = 155: (0, 14, 41, 130, 4, 38, 31, 35, 24, 97, 13, 0)
s = 156: (0, 10, 65, 102, 4, 33, 27, 27, 25, 87, 12, 0)
s = 157: (0, 10, 37, 91, 5, 45, 20, 36, 26, 48, 5, 0)
s = 158: (0, 13, 44, 64, 4, 42, 22, 22, 25, 50, 7, 0)
s = 159: (0, 14, 65, 103, 5, 56, 15, 22, 30, 38, 12, 0)
s = 160: (0, 12, 44, 98, 6, 34, 22, 33, 42, 54, 8, 0)
s = 161: (0, 16, 81, 105, 7, 37, 22, 24, 36, 69, 10, 0)
s = 162: (0, 10, 58, 67, 5, 42, 21, 21, 31, 52, 10, 0)
s = 163: (0, 8, 56, 83, 7, 56, 25, 39, 26, 35, 8, 0)
s = 164: (0, 8, 49, 91, 4, 35, 26, 23, 19, 64, 14, 0)
s = 165: (0, 12, 27, 73, 5, 27, 27, 28, 33, 57, 13, 0)
s = 166: (0, 18, 35, 99, 6, 27, 19, 27, 37, 70, 6, 0)
s = 167: (0, 9, 51, 94, 4, 63, 30, 23, 25, 48, 6, 0)
s = 168: (0, 11, 43, 59, 6, 26, 21, 28, 48, 43, 11, 0)
s = 169: (0, 17, 54, 95, 3, 50, 35, 23, 56, 42, 11, 0)
s = 170: (0, 7, 33, 121, 5, 35, 29, 13, 43, 49, 11, 0)
s = 171: (0, 13, 68, 141, 9, 24, 15, 16, 33, 64, 13, 0)
s = 172: (0, 16, 58, 51, 6, 37, 28, 16, 40, 56, 7, 0)
s = 173: (0, 11, 49, 66, 4, 27, 40, 24, 49, 94, 13, 0)
s = 174: (0, 8, 74, 75, 6, 35, 20, 32, 40, 73, 10, 0)
s = 175: (0, 8, 68, 129, 7, 32, 24, 14, 33, 76, 8, 0)
s = 176: (0, 11, 55, 103, 4, 35, 24, 24, 29, 65, 7, 0)
s = 177: (0, 9, 32, 129, 6, 31, 20, 20, 40, 61, 8, 0)
s = 178: (0, 10, 42, 144, 5, 24, 20, 40, 34, 59, 7, 0)
s = 179: (0, 9, 41, 168, 4, 31, 19, 21, 25, 56, 11, 0)
s = 180: (0, 9, 68, 109, 7, 41, 20, 26, 21, 59, 11, 0)
s = 181: (0, 10, 38, 64, 6, 24, 18, 25, 49, 46, 7, 0)
s = 182: (0, 13, 49, 121, 6, 38, 18, 22, 37, 88, 12, 0)
s = 183: (0, 9, 46, 108, 5, 31, 24, 13, 50, 42, 9, 0)
s = 184: (0, 12, 44, 88, 7, 44, 31, 36, 30, 56, 12, 0)
s = 185: (0, 11, 45, 134, 4, 34, 20, 16, 25, 91, 15, 0)
s = 186: (0, 15, 49, 85, 8, 41, 15, 22, 36, 50, 9, 0)
s = 187: (0, 7, 63, 123, 8, 45, 16, 26, 39, 72, 8, 0)
s = 188: (0, 12, 32, 93, 4, 37, 28, 14, 30, 45, 10, 0)
s = 189: (0, 14, 76, 61, 4, 26, 22, 23, 21, 82, 9, 0)
s = 190: (0, 13, 56, 71, 5, 59, 24, 21, 21, 69, 12, 0)
s = 191: (0, 12, 64, 61, 6, 37, 26, 21, 24, 45, 12, 0)
s = 192: (0, 14, 40, 84, 4, 65, 25, 21, 23, 39, 9, 0)
s = 193: (0, 19, 57, 85, 8, 29, 17, 26, 35, 89, 9, 0)
s = 194: (0, 15, 31, 114, 4, 36, 28, 19, 31, 37, 8, 0)
s = 195: (0, 10, 35, 95, 3, 39, 20, 20, 19, 33, 8, 0)
s = 196: (0, 17, 61, 78, 6, 58, 23, 32, 45, 60, 9, 0)
s = 197: (0, 16, 70, 92, 3, 55, 23, 24, 22, 95, 12, 0)
s = 198: (0, 10, 47, 128, 6, 33, 23, 26, 27, 77, 11, 0)
s = 199: (0, 11, 33, 123, 5, 48, 21, 23, 42, 51, 6, 0)
s = 200: (0, 10, 46, 92, 4, 36, 22, 38, 28, 76, 6, 0)
************************************************************************
ES/LS-VALUES:
jobnr.   ES(i)    LS(i)
------------------------------------------------------------------------
  0        0        0
  1        0       58
  2        0       41
  3        0       39
  4        9       65
  5       15       61
  6        9       51
  7       15       55
  8        9       65
  9       19       60
 10       20       67
 11       27       69
************************************************************************
BIG-M-VALUES:
M1 = 29, M2 = 169
************************************************************************
